/*********************************************
 * OPL 12.8.0.0 Data
 * Author: marmanvii
 * Creation Date: Nov 28, 2018 at 2:44:55 PM
 *********************************************/

 RAE = [0.15, 0.12, 0.10, 0.05, 0.08];
 
 FR = [1.6, 1.0, 0.5, 0.0, 0.1];